n_jobs = 3;
n_machines = 3;
job_task_machine = array2d(jobs, tasks, [1, 2, 0, 2, 0, 1, 0, 2, 1]);
job_task_duration = array2d(jobs, tasks, [76, 73, 72, 56, 74, 68, 56, 55, 56]);
deadline = array2d(jobs, 1..3, [284, 3, 1, 257, 2, 0, 172, 0, 5]);
% job_task_start = array2d(jobs, tasks, [0, 111, 184, 0, 56, 167, 0, 56, 111]);
fixed_horizon = 0..307;
% job_task_start_wet = array2d(1..3, 1..3, [0, 111, 212, 0, 56, 189, 0, 56, 111]);
optimal = 0;
